c Reduced graph for GEOM20a generated by Cyril Grelier
p edge 20 37
e 1 2
e 1 5
e 1 12
e 1 15
e 1 17
e 1 19
e 2 5
e 2 6
e 2 11
e 2 12
e 2 15
e 2 17
e 3 4
e 3 7
e 3 10
e 5 6
e 5 11
e 5 15
e 5 17
e 6 11
e 6 15
e 7 10
e 8 9
e 8 13
e 8 16
e 8 18
e 9 13
e 9 16
e 9 18
e 11 12
e 11 15
e 12 15
e 12 17
e 13 18
e 14 16
e 16 18
e 17 19
